
 $CONTRL RUNTYP=ENERGY SCFTYP=MCSCF CITYP=ALDET UNITS=BOHR ISPHER=1 $END
 $SYSTEM MWORDS=12 $END
 $BASIS GBASIS=ACCD $END
 $GUESS  GUESS=MOREAD NORB=46 $END
 $MCSCF CISTEP=ALDET FORS=.TRUE. MAXIT=200 $END
 $DET GROUP=C1 ISTSYM=1 NCORE=3 NELS=6 NACT=6 NSTATE=6
 WSTATE(1)=0.5,0.5 $END
 $CIDET GROUP=C1 ISTSYM=1 NCORE=3 NELS=6 NACT=6 NSTATE=6 $END 
 $CPMCHF PRCCHG=.TRUE. NACST(1)=1,2 NAPICK=.TRUE. $END  
 $ELMOM WHERE=NUCLEI $END
 $DATA
LiF  RHF/aug-cc-pVDZ
CNv 2

F    9.0   0.0   0.0  0.0
Li   3.0   0.0   0.0  3.0
 $END
 $VEC   
 1  1 1.00079406E+00 6.63851501E-04-4.17395163E-03-0.00000000E+00-0.00000000E+00
 1  2 4.78197800E-04-0.00000000E+00-0.00000000E+00-1.17551813E-04-2.03141984E-05
 1  3-2.03141984E-05 4.06283969E-05-0.00000000E+00-0.00000000E+00-0.00000000E+00
 1  4 1.34349013E-03-0.00000000E+00-0.00000000E+00 4.83109296E-04 4.20521142E-05
 1  5 4.20521142E-05-8.41042285E-05-0.00000000E+00-0.00000000E+00-0.00000000E+00
 1  6-1.14648490E-04-1.11576462E-04-2.24694799E-04-0.00000000E+00-0.00000000E+00
 1  7-6.04429165E-04-0.00000000E+00-0.00000000E+00 3.56325769E-04-3.89801085E-04
 1  8-3.89801085E-04 7.79602170E-04-0.00000000E+00-0.00000000E+00-0.00000000E+00
 1  9 1.43393434E-04-0.00000000E+00-0.00000000E+00-4.56647002E-05 1.11729572E-04
 1 10 1.11729572E-04-2.23459144E-04-0.00000000E+00-0.00000000E+00-0.00000000E+00
 2  1-7.46601987E-04 1.30731128E-02 1.45366479E-02-0.00000000E+00-0.00000000E+00
 2  2 7.00912950E-03-0.00000000E+00-0.00000000E+00 4.21725543E-03-6.83563290E-04
 2  3-6.83563290E-04 1.36712658E-03-0.00000000E+00-0.00000000E+00-0.00000000E+00
 2  4 9.16534400E-03-0.00000000E+00-0.00000000E+00 2.24793300E-03-3.51563448E-04
 2  5-3.51563448E-04 7.03126897E-04-0.00000000E+00-0.00000000E+00-0.00000000E+00
 2  6 9.95027327E-01-7.58759940E-03-4.88368815E-03-0.00000000E+00-0.00000000E+00
 2  7 7.77555016E-03-0.00000000E+00-0.00000000E+00-1.73243593E-03 1.38184790E-03
 2  8 1.38184790E-03-2.76369580E-03-0.00000000E+00-0.00000000E+00-0.00000000E+00
 2  9 1.62056171E-03-0.00000000E+00-0.00000000E+00 5.62902310E-04-5.30371119E-04
 2 10-5.30371119E-04 1.06074224E-03-0.00000000E+00-0.00000000E+00-0.00000000E+00
 3  1-2.94950022E-03 5.02994694E-01 5.63328678E-01 0.00000000E+00 0.00000000E+00
 3  2 1.95231399E-02 0.00000000E+00 0.00000000E+00 2.73465774E-02-3.13830466E-04
 3  3-3.13830466E-04 6.27660932E-04 0.00000000E+00 0.00000000E+00 0.00000000E+00
 3  4-2.65689191E-02 0.00000000E+00 0.00000000E+00-1.81097742E-02-3.63502545E-03
 3  5-3.63502545E-03 7.27005090E-03 0.00000000E+00 0.00000000E+00 0.00000000E+00
 3  6-5.32415401E-02 4.50983649E-02-2.72550815E-03 0.00000000E+00 0.00000000E+00
 3  7-3.65930123E-02 0.00000000E+00 0.00000000E+00 4.91454510E-03-1.57910809E-03
 3  8-1.57910809E-03 3.15821618E-03 0.00000000E+00 0.00000000E+00 0.00000000E+00
 3  9-3.40031423E-04 0.00000000E+00 0.00000000E+00-8.83925372E-04-2.54960467E-03
 3 10-2.54960467E-03 5.09920934E-03 0.00000000E+00 0.00000000E+00 0.00000000E+00
 4  1-0.00000000E+00-0.00000000E+00-0.00000000E+00 6.65159015E-01-0.00000000E+00
 4  2-0.00000000E+00 4.33893189E-01-0.00000000E+00-0.00000000E+00-0.00000000E+00
 4  3-0.00000000E+00-0.00000000E+00-0.00000000E+00 1.56024389E-03-0.00000000E+00
 4  4-0.00000000E+00 6.92103838E-02-0.00000000E+00-0.00000000E+00-0.00000000E+00
 4  5-0.00000000E+00-0.00000000E+00-0.00000000E+00 1.93382873E-02-0.00000000E+00
 4  6-0.00000000E+00-0.00000000E+00-0.00000000E+00 5.58474489E-02-0.00000000E+00
 4  7-0.00000000E+00-2.15587052E-02-0.00000000E+00-0.00000000E+00-0.00000000E+00
 4  8-0.00000000E+00-0.00000000E+00-0.00000000E+00-2.21057300E-02-0.00000000E+00
 4  9-0.00000000E+00 7.23568892E-03-0.00000000E+00-0.00000000E+00-0.00000000E+00
 4 10-0.00000000E+00-0.00000000E+00-0.00000000E+00 3.04618274E-03-0.00000000E+00
 5  1-0.00000000E+00-0.00000000E+00-0.00000000E+00-0.00000000E+00 6.65159012E-01
 5  2-0.00000000E+00-0.00000000E+00 4.33893198E-01-0.00000000E+00-0.00000000E+00
 5  3-0.00000000E+00-0.00000000E+00-0.00000000E+00-0.00000000E+00 1.55951254E-03
 5  4-0.00000000E+00-0.00000000E+00 6.92107430E-02-0.00000000E+00-0.00000000E+00
 5  5-0.00000000E+00-0.00000000E+00-0.00000000E+00-0.00000000E+00 1.93388291E-02
 5  6-0.00000000E+00-0.00000000E+00-0.00000000E+00-0.00000000E+00 5.58470754E-02
 5  7-0.00000000E+00-0.00000000E+00-2.15586196E-02-0.00000000E+00-0.00000000E+00
 5  8-0.00000000E+00-0.00000000E+00-0.00000000E+00-0.00000000E+00-2.21054463E-02
 5  9-0.00000000E+00-0.00000000E+00 7.23566883E-03-0.00000000E+00-0.00000000E+00
 5 10-0.00000000E+00-0.00000000E+00-0.00000000E+00-0.00000000E+00 3.04610988E-03
 6  1-7.30716571E-03-3.94869271E-02-1.34493921E-02 0.00000000E+00 0.00000000E+00
 6  2 6.64415673E-01 0.00000000E+00 0.00000000E+00 4.55280426E-01-6.33230217E-04
 6  3-6.33230217E-04 1.26646043E-03 0.00000000E+00 0.00000000E+00 0.00000000E+00
 6  4-1.90586139E-01 0.00000000E+00 0.00000000E+00-1.58195195E-02-1.21111132E-02
 6  5-1.21111132E-02 2.42222263E-02 0.00000000E+00 0.00000000E+00 0.00000000E+00
 6  6-3.48880311E-02 1.70791013E-01-8.24912487E-03 0.00000000E+00 0.00000000E+00
 6  7-1.53121582E-01 0.00000000E+00 0.00000000E+00 2.94131621E-02-1.44108672E-02
 6  8-1.44108672E-02 2.88217344E-02 0.00000000E+00 0.00000000E+00 0.00000000E+00
 6  9-2.90707406E-03 0.00000000E+00 0.00000000E+00-8.81525257E-03-3.59977439E-03
 6 10-3.59977439E-03 7.19954879E-03 0.00000000E+00 0.00000000E+00 0.00000000E+00
 7  1-2.45493481E-03-4.07267287E-02-8.49802090E-02-0.00000000E+00-0.00000000E+00
 7  2-2.86427405E-02-0.00000000E+00-0.00000000E+00-3.23226073E-02-1.13321553E-03
 7  3-1.13321553E-03 2.26643106E-03-0.00000000E+00-0.00000000E+00-0.00000000E+00
 7  4-8.47703185E-03-0.00000000E+00-0.00000000E+00-3.90153468E-02 3.74767335E-03
 7  5 3.74767335E-03-7.49534671E-03-0.00000000E+00-0.00000000E+00-0.00000000E+00
 7  6-7.25610080E-03 4.23392551E-01 6.19486008E-01-0.00000000E+00-0.00000000E+00
 7  7 2.66185456E-01-0.00000000E+00-0.00000000E+00 5.61813196E-02-1.18603179E-02
 7  8-1.18603179E-02 2.37206358E-02-0.00000000E+00-0.00000000E+00-0.00000000E+00
 7  9-1.69315481E-02-0.00000000E+00-0.00000000E+00-2.45120341E-02 4.03006990E-02
 7 10 4.03006990E-02-8.06013979E-02-0.00000000E+00-0.00000000E+00-0.00000000E+00
 8  1-0.00000000E+00-0.00000000E+00-0.00000000E+00-0.00000000E+00 8.33889086E-01
 8  2-0.00000000E+00-0.00000000E+00-6.83460245E-01-0.00000000E+00-0.00000000E+00
 8  3-0.00000000E+00-0.00000000E+00-0.00000000E+00-0.00000000E+00-1.37079421E-02
 8  4-0.00000000E+00-0.00000000E+00-2.48764759E-01-0.00000000E+00-0.00000000E+00
 8  5-0.00000000E+00-0.00000000E+00-0.00000000E+00-0.00000000E+00-4.57881531E-02
 8  6-0.00000000E+00-0.00000000E+00-0.00000000E+00-0.00000000E+00-1.97533139E-01
 8  7-0.00000000E+00-0.00000000E+00 7.67817702E-02-0.00000000E+00-0.00000000E+00
 8  8-0.00000000E+00-0.00000000E+00-0.00000000E+00-0.00000000E+00 1.10118686E-01
 8  9-0.00000000E+00-0.00000000E+00-2.19163397E-02-0.00000000E+00-0.00000000E+00
 8 10-0.00000000E+00-0.00000000E+00-0.00000000E+00-0.00000000E+00-3.49108030E-02
 9  1-0.00000000E+00-0.00000000E+00-0.00000000E+00 8.33889109E-01-0.00000000E+00
 9  2-0.00000000E+00-6.83460227E-01-0.00000000E+00-0.00000000E+00-0.00000000E+00
 9  3-0.00000000E+00-0.00000000E+00-0.00000000E+00-1.37161024E-02-0.00000000E+00
 9  4-0.00000000E+00-2.48761262E-01-0.00000000E+00-0.00000000E+00-0.00000000E+00
 9  5-0.00000000E+00-0.00000000E+00-0.00000000E+00-4.57823540E-02-0.00000000E+00
 9  6-0.00000000E+00-0.00000000E+00-0.00000000E+00-1.97536604E-01-0.00000000E+00
 9  7-0.00000000E+00 7.67823124E-02-0.00000000E+00-0.00000000E+00-0.00000000E+00
 9  8-0.00000000E+00-0.00000000E+00-0.00000000E+00 1.10121289E-01-0.00000000E+00
 9  9-0.00000000E+00-2.19164573E-02-0.00000000E+00-0.00000000E+00-0.00000000E+00
 9 10-0.00000000E+00-0.00000000E+00-0.00000000E+00-3.49112678E-02-0.00000000E+00
10  1-6.84128146E-04 6.94029879E-03 2.63324008E-02 0.00000000E+00 0.00000000E+00
10  2-2.45790100E-03 0.00000000E+00 0.00000000E+00 2.22584832E-03 8.20502435E-05
10  3 8.20502694E-05-1.64100513E-04 0.00000000E+00 0.00000000E+00 0.00000000E+00
10  4-4.49972716E-03 0.00000000E+00 0.00000000E+00 1.43530239E-02-7.86546215E-04
10  5-7.86546406E-04 1.57309262E-03 0.00000000E+00 0.00000000E+00 0.00000000E+00
10  6 4.09865304E-03-5.61148633E-03-1.24946756E-01 0.00000000E+00 0.00000000E+00
10  7 2.89273835E-02 0.00000000E+00 0.00000000E+00-1.95595876E-01 1.15372201E-02
10  8 1.15372206E-02-2.30744407E-02 0.00000000E+00 0.00000000E+00 0.00000000E+00
10  9 1.39555271E-01 0.00000000E+00 0.00000000E+00 1.08807960E+00-2.46108039E-02
10 10-2.46108045E-02 4.92216083E-02 0.00000000E+00 0.00000000E+00 0.00000000E+00
11  1 0.00000000E+00 0.00000000E+00 0.00000000E+00 8.24595298E-03 0.00000000E+00
11  2 0.00000000E+00-6.65654620E-03 0.00000000E+00 0.00000000E+00 0.00000000E+00
11  3 0.00000000E+00 0.00000000E+00 0.00000000E+00 1.39725407E-04 0.00000000E+00
11  4 0.00000000E+00-1.47402759E-02 0.00000000E+00 0.00000000E+00 0.00000000E+00
11  5 0.00000000E+00 0.00000000E+00 0.00000000E+00-2.32851685E-03 0.00000000E+00
11  6 0.00000000E+00 0.00000000E+00 0.00000000E+00 5.75151853E-03 0.00000000E+00
11  7 0.00000000E+00-1.86809530E-01 0.00000000E+00 0.00000000E+00 0.00000000E+00
11  8 0.00000000E+00 0.00000000E+00 0.00000000E+00-1.30098160E-02 0.00000000E+00
11  9 0.00000000E+00 1.09173933E+00 0.00000000E+00 0.00000000E+00 0.00000000E+00
11 10 0.00000000E+00 0.00000000E+00 0.00000000E+00 4.44098721E-02 0.00000000E+00
12  1 0.00000000E+00 0.00000000E+00 0.00000000E+00 0.00000000E+00 8.24598055E-03
12  2 0.00000000E+00 0.00000000E+00-6.65653011E-03 0.00000000E+00 0.00000000E+00
12  3 0.00000000E+00 0.00000000E+00 0.00000000E+00 0.00000000E+00 1.39758713E-04
12  4 0.00000000E+00 0.00000000E+00-1.47403483E-02 0.00000000E+00 0.00000000E+00
12  5 0.00000000E+00 0.00000000E+00 0.00000000E+00 0.00000000E+00-2.32855278E-03
12  6 0.00000000E+00 0.00000000E+00 0.00000000E+00 0.00000000E+00 5.75153624E-03
12  7 0.00000000E+00 0.00000000E+00-1.86809745E-01 0.00000000E+00 0.00000000E+00
12  8 0.00000000E+00 0.00000000E+00 0.00000000E+00 0.00000000E+00-1.30098605E-02
12  9 0.00000000E+00 0.00000000E+00 1.09173942E+00 0.00000000E+00 0.00000000E+00
12 10 0.00000000E+00 0.00000000E+00 0.00000000E+00 0.00000000E+00 4.44099208E-02
13  1 1.84510927E-03 1.66751884E-03-2.45418389E-02 0.00000000E+00 0.00000000E+00
13  2 1.33580410E-02 0.00000000E+00 0.00000000E+00 1.45208414E-02 4.66904361E-04
13  3 4.66904213E-04-9.33808575E-04 0.00000000E+00 0.00000000E+00 0.00000000E+00
13  4 2.06100798E-01 0.00000000E+00 0.00000000E+00 6.77203730E-02-3.15817353E-03
13  5-3.15817344E-03 6.31634697E-03 0.00000000E+00 0.00000000E+00 0.00000000E+00
13  6 4.57441266E-02 2.13504230E-02-1.30707235E+00 0.00000000E+00 0.00000000E+00
13  7 1.44336233E-02 0.00000000E+00 0.00000000E+00-5.21065274E-02-1.21539787E-03
13  8-1.21539738E-03 2.43079525E-03 0.00000000E+00 0.00000000E+00 0.00000000E+00
13  9 1.65126399E+00 0.00000000E+00 0.00000000E+00-5.22518262E-02 2.32692654E-02
13 10 2.32692664E-02-4.65385318E-02 0.00000000E+00 0.00000000E+00 0.00000000E+00
14  1 9.54142094E-03 5.71258780E-02 2.27910154E-02-0.00000000E+00-0.00000000E+00
14  2-9.75229232E-03-0.00000000E+00-0.00000000E+00 1.25247474E-02-4.40374062E-04
14  3-4.40373955E-04 8.80748016E-04-0.00000000E+00-0.00000000E+00-0.00000000E+00
14  4 5.64149965E-01-0.00000000E+00-0.00000000E+00-9.46409007E-02-1.05862185E-03
14  5-1.05862282E-03 2.11724467E-03-0.00000000E+00-0.00000000E+00-0.00000000E+00
14  6 2.20064180E-02-6.56218194E-03-7.25491612E-01-0.00000000E+00-0.00000000E+00
14  7 4.99702011E-02-0.00000000E+00-0.00000000E+00 1.41703629E+00-3.94407170E-04
14  8-3.94404390E-04 7.88811560E-04-0.00000000E+00-0.00000000E+00-0.00000000E+00
14  9 3.03126444E-01-0.00000000E+00-0.00000000E+00-5.94799934E-01 2.61544382E-02
14 10 2.61544358E-02-5.23088740E-02-0.00000000E+00-0.00000000E+00-0.00000000E+00
15  1-0.00000000E+00-0.00000000E+00-0.00000000E+00 3.56386014E-02-0.00000000E+00
15  2-0.00000000E+00 1.43392269E-02-0.00000000E+00-0.00000000E+00-0.00000000E+00
15  3-0.00000000E+00-0.00000000E+00-0.00000000E+00 6.72496875E-04-0.00000000E+00
15  4-0.00000000E+00-4.00828228E-01-0.00000000E+00-0.00000000E+00-0.00000000E+00
15  5-0.00000000E+00-0.00000000E+00-0.00000000E+00-6.96447554E-03-0.00000000E+00
15  6-0.00000000E+00-0.00000000E+00-0.00000000E+00-9.39926559E-02-0.00000000E+00
15  7-0.00000000E+00 1.41756839E+00-0.00000000E+00-0.00000000E+00-0.00000000E+00
15  8-0.00000000E+00-0.00000000E+00-0.00000000E+00-4.66590034E-02-0.00000000E+00
15  9-0.00000000E+00-5.78112714E-01-0.00000000E+00-0.00000000E+00-0.00000000E+00
15 10-0.00000000E+00-0.00000000E+00-0.00000000E+00 9.26702528E-02-0.00000000E+00
16  1-0.00000000E+00-0.00000000E+00-0.00000000E+00-0.00000000E+00 3.56386295E-02
16  2-0.00000000E+00-0.00000000E+00 1.43392686E-02-0.00000000E+00-0.00000000E+00
16  3-0.00000000E+00-0.00000000E+00-0.00000000E+00-0.00000000E+00 6.72645103E-04
16  4-0.00000000E+00-0.00000000E+00-4.00828595E-01-0.00000000E+00-0.00000000E+00
16  5-0.00000000E+00-0.00000000E+00-0.00000000E+00-0.00000000E+00-6.96463606E-03
16  6-0.00000000E+00-0.00000000E+00-0.00000000E+00-0.00000000E+00-9.39923052E-02
16  7-0.00000000E+00-0.00000000E+00 1.41756821E+00-0.00000000E+00-0.00000000E+00
16  8-0.00000000E+00-0.00000000E+00-0.00000000E+00-0.00000000E+00-4.66592980E-02
16  9-0.00000000E+00-0.00000000E+00-5.78112482E-01-0.00000000E+00-0.00000000E+00
16 10-0.00000000E+00-0.00000000E+00-0.00000000E+00-0.00000000E+00 9.26706111E-02
17  1 4.98316480E-03-7.06263526E-03-8.56336489E-02-0.00000000E+00-0.00000000E+00
17  2-1.31129218E-02-0.00000000E+00-0.00000000E+00-7.17190307E-02-2.39991170E-03
17  3-2.39991150E-03 4.79982320E-03-0.00000000E+00-0.00000000E+00-0.00000000E+00
17  4-2.35680268E-01-0.00000000E+00-0.00000000E+00-3.74609039E-01 1.46431464E-02
17  5 1.46431466E-02-2.92862930E-02-0.00000000E+00-0.00000000E+00-0.00000000E+00
17  6-2.22141782E-01-9.15649677E-01 1.77655007E+00-0.00000000E+00-0.00000000E+00
17  7-9.94686555E-01-0.00000000E+00-0.00000000E+00 8.17332655E-01-2.23790428E-01
17  8-2.23790413E-01 4.47580841E-01-0.00000000E+00-0.00000000E+00-0.00000000E+00
17  9-6.65840630E-01-0.00000000E+00-0.00000000E+00-2.26215717E-01 4.56293114E-01
17 10 4.56293079E-01-9.12586193E-01-0.00000000E+00-0.00000000E+00-0.00000000E+00
18  1-0.00000000E+00-0.00000000E+00-0.00000000E+00-0.00000000E+00 1.60640937E-02
18  2-0.00000000E+00-0.00000000E+00-5.69885931E-02-0.00000000E+00-0.00000000E+00
18  3-0.00000000E+00-0.00000000E+00-0.00000000E+00-0.00000000E+00 7.37705901E-03
18  4-0.00000000E+00-0.00000000E+00 4.04720000E-01-0.00000000E+00-0.00000000E+00
18  5-0.00000000E+00-0.00000000E+00-0.00000000E+00-0.00000000E+00-2.21640804E-02
18  6-0.00000000E+00-0.00000000E+00-0.00000000E+00-0.00000000E+00 6.55139741E-01
18  7-0.00000000E+00-0.00000000E+00-8.08154135E-01-0.00000000E+00-0.00000000E+00
18  8-0.00000000E+00-0.00000000E+00-0.00000000E+00-0.00000000E+00-6.06577194E-01
18  9-0.00000000E+00-0.00000000E+00 2.37070223E-01-0.00000000E+00-0.00000000E+00
18 10-0.00000000E+00-0.00000000E+00-0.00000000E+00-0.00000000E+00 1.50736593E+00
19  1-0.00000000E+00-0.00000000E+00-0.00000000E+00 1.60642034E-02-0.00000000E+00
19  2-0.00000000E+00-5.69885106E-02-0.00000000E+00-0.00000000E+00-0.00000000E+00
19  3-0.00000000E+00-0.00000000E+00-0.00000000E+00 7.37702915E-03-0.00000000E+00
19  4-0.00000000E+00 4.04719858E-01-0.00000000E+00-0.00000000E+00-0.00000000E+00
19  5-0.00000000E+00-0.00000000E+00-0.00000000E+00-2.21640647E-02-0.00000000E+00
19  6-0.00000000E+00-0.00000000E+00-0.00000000E+00 6.55139111E-01-0.00000000E+00
19  7-0.00000000E+00-8.08153526E-01-0.00000000E+00-0.00000000E+00-0.00000000E+00
19  8-0.00000000E+00-0.00000000E+00-0.00000000E+00-6.06577514E-01-0.00000000E+00
19  9-0.00000000E+00 2.37070033E-01-0.00000000E+00-0.00000000E+00-0.00000000E+00
19 10-0.00000000E+00-0.00000000E+00-0.00000000E+00 1.50736658E+00-0.00000000E+00
20  1-0.00000000E+00-0.00000000E+00-0.00000000E+00-0.00000000E+00-0.00000000E+00
20  2-0.00000000E+00-0.00000000E+00-0.00000000E+00-0.00000000E+00-0.00000000E+00
20  3-0.00000000E+00-0.00000000E+00 2.19805737E-03-0.00000000E+00-0.00000000E+00
20  4-0.00000000E+00-0.00000000E+00-0.00000000E+00-0.00000000E+00-0.00000000E+00
20  5-0.00000000E+00-0.00000000E+00 9.13577700E-03-0.00000000E+00-0.00000000E+00
20  6-0.00000000E+00-0.00000000E+00-0.00000000E+00-0.00000000E+00-0.00000000E+00
20  7-0.00000000E+00-0.00000000E+00-0.00000000E+00-0.00000000E+00-0.00000000E+00
20  8-0.00000000E+00-0.00000000E+00-7.35215443E-01-0.00000000E+00-0.00000000E+00
20  9-0.00000000E+00-0.00000000E+00-0.00000000E+00-0.00000000E+00-0.00000000E+00
20 10-0.00000000E+00-0.00000000E+00 1.62992580E+00-0.00000000E+00-0.00000000E+00
21  1 1.00683736E-09 2.11040580E-09-1.00456259E-08 0.00000000E+00 0.00000000E+00
21  2-3.12830337E-09 0.00000000E+00 0.00000000E+00-7.78899897E-09 1.90357366E-03
21  3-1.90357338E-03-2.83873839E-10 0.00000000E+00 0.00000000E+00 0.00000000E+00
21  4 9.00111801E-08 0.00000000E+00 0.00000000E+00 9.59431928E-09 7.91181444E-03
21  5-7.91181550E-03 1.06245111E-09 0.00000000E+00 0.00000000E+00 0.00000000E+00
21  6 1.29734616E-08 5.28360658E-08-1.45643298E-07 0.00000000E+00 0.00000000E+00
21  7 4.15443769E-08 0.00000000E+00 0.00000000E+00 1.01695785E-08-6.36715266E-01
21  8 6.36715236E-01 3.03238983E-08 0.00000000E+00 0.00000000E+00 0.00000000E+00
21  9 4.65501214E-08 0.00000000E+00 0.00000000E+00-2.57080281E-09 1.41155719E+00
21 10-1.41155711E+00-8.55766176E-08 0.00000000E+00 0.00000000E+00 0.00000000E+00
22  1-1.79865422E-02-3.61821722E-02 1.86587964E-01 0.00000000E+00 0.00000000E+00
22  2 8.17673772E-02 0.00000000E+00 0.00000000E+00 1.38950291E-01-2.08642085E-03
22  3-2.08642210E-03 4.17284295E-03 0.00000000E+00 0.00000000E+00 0.00000000E+00
22  4-1.42538732E+00 0.00000000E+00 0.00000000E+00-1.15885089E-01 5.46147999E-03
22  5 5.46147666E-03-1.09229567E-02 0.00000000E+00 0.00000000E+00 0.00000000E+00
22  6-1.71368605E-01-7.12121197E-01 2.07454657E+00 0.00000000E+00 0.00000000E+00
22  7-4.77080627E-01 0.00000000E+00 0.00000000E+00-3.29495833E-01 3.36889861E-01
22  8 3.36889942E-01-6.73779803E-01 0.00000000E+00 0.00000000E+00 0.00000000E+00
22  9-6.32586216E-01 0.00000000E+00 0.00000000E+00 8.62620273E-02-8.46482371E-01
22 10-8.46482539E-01 1.69296491E+00 0.00000000E+00 0.00000000E+00 0.00000000E+00
23  1 1.38089538E-02-1.03408421E-01-5.28194200E-01-0.00000000E+00-0.00000000E+00
23  2-6.28131936E-04-0.00000000E+00-0.00000000E+00 1.54358960E-01 2.12332596E-04
23  3 2.12332085E-04-4.24664681E-04-0.00000000E+00-0.00000000E+00-0.00000000E+00
23  4 1.59572690E+00-0.00000000E+00-0.00000000E+00-5.91329074E-01-1.57335545E-03
23  5-1.57335730E-03 3.14671276E-03-0.00000000E+00-0.00000000E+00-0.00000000E+00
23  6 2.33338911E-01 7.44629166E-01-1.48595249E+00-0.00000000E+00-0.00000000E+00
23  7-1.41214565E-01-0.00000000E+00-0.00000000E+00 8.13317641E-01 4.30904674E-01
23  8 4.30904654E-01-8.61809328E-01-0.00000000E+00-0.00000000E+00-0.00000000E+00
23  9 3.34235025E-01-0.00000000E+00-0.00000000E+00-1.87979651E-01-2.36503332E-01
23 10-2.36503312E-01 4.73006643E-01-0.00000000E+00-0.00000000E+00-0.00000000E+00
24  1 0.00000000E+00 0.00000000E+00 0.00000000E+00 0.00000000E+00-4.69520486E-02
24  2 0.00000000E+00 0.00000000E+00-1.04494185E-01 0.00000000E+00 0.00000000E+00
24  3 0.00000000E+00 0.00000000E+00 0.00000000E+00 0.00000000E+00-8.04576232E-03
24  4 0.00000000E+00 0.00000000E+00 2.22470012E+00 0.00000000E+00 0.00000000E+00
24  5 0.00000000E+00 0.00000000E+00 0.00000000E+00 0.00000000E+00-8.16116899E-03
24  6 0.00000000E+00 0.00000000E+00 0.00000000E+00 0.00000000E+00-1.77335615E+00
24  7 0.00000000E+00 0.00000000E+00-7.82665769E-02 0.00000000E+00 0.00000000E+00
24  8 0.00000000E+00 0.00000000E+00 0.00000000E+00 0.00000000E+00-7.42698623E-01
24  9 0.00000000E+00 0.00000000E+00-9.70139274E-03 0.00000000E+00 0.00000000E+00
24 10 0.00000000E+00 0.00000000E+00 0.00000000E+00 0.00000000E+00 2.16801476E+00
25  1 0.00000000E+00 0.00000000E+00 0.00000000E+00-4.69521464E-02 0.00000000E+00
25  2 0.00000000E+00-1.04494283E-01 0.00000000E+00 0.00000000E+00 0.00000000E+00
25  3 0.00000000E+00 0.00000000E+00 0.00000000E+00-8.04558034E-03 0.00000000E+00
25  4 0.00000000E+00 2.22470058E+00 0.00000000E+00 0.00000000E+00 0.00000000E+00
25  5 0.00000000E+00 0.00000000E+00 0.00000000E+00-8.16135892E-03 0.00000000E+00
25  6 0.00000000E+00 0.00000000E+00 0.00000000E+00-1.77335619E+00 0.00000000E+00
25  7 0.00000000E+00-7.82666435E-02 0.00000000E+00 0.00000000E+00 0.00000000E+00
25  8 0.00000000E+00 0.00000000E+00 0.00000000E+00-7.42698314E-01 0.00000000E+00
25  9 0.00000000E+00-9.70135956E-03 0.00000000E+00 0.00000000E+00 0.00000000E+00
25 10 0.00000000E+00 0.00000000E+00 0.00000000E+00 2.16801426E+00 0.00000000E+00
26  1-2.21020850E-03-4.08338363E-02-5.00227046E-02-0.00000000E+00-0.00000000E+00
26  2-1.78087731E-01-0.00000000E+00-0.00000000E+00-4.73086772E-01-3.80733184E-03
26  3-3.80732913E-03 7.61466097E-03-0.00000000E+00-0.00000000E+00-0.00000000E+00
26  4-1.89232492E+00-0.00000000E+00-0.00000000E+00 1.59014546E+00 4.07474953E-02
26  5 4.07475077E-02-8.14950030E-02-0.00000000E+00-0.00000000E+00-0.00000000E+00
26  6-1.98673749E-01-1.63613622E-01 1.10016245E+00-0.00000000E+00-0.00000000E+00
26  7-1.49574879E+00-0.00000000E+00-0.00000000E+00-4.21086609E-01 3.58498857E-01
26  8 3.58498864E-01-7.16997721E-01-0.00000000E+00-0.00000000E+00-0.00000000E+00
26  9-1.36653957E-01-0.00000000E+00-0.00000000E+00 4.47419447E-02-9.65620705E-01
26 10-9.65620714E-01 1.93124142E+00-0.00000000E+00-0.00000000E+00-0.00000000E+00
27  1-0.00000000E+00-0.00000000E+00-0.00000000E+00 1.00555108E-01-0.00000000E+00
27  2-0.00000000E+00-5.95722404E-02-0.00000000E+00-0.00000000E+00-0.00000000E+00
27  3-0.00000000E+00-0.00000000E+00-0.00000000E+00-1.89085364E-02-0.00000000E+00
27  4-0.00000000E+00 8.57023268E-01-0.00000000E+00-0.00000000E+00-0.00000000E+00
27  5-0.00000000E+00-0.00000000E+00-0.00000000E+00 4.55060610E-02-0.00000000E+00
27  6-0.00000000E+00-0.00000000E+00-0.00000000E+00-1.52367374E-01-0.00000000E+00
27  7-0.00000000E+00-2.48188022E-01-0.00000000E+00-0.00000000E+00-0.00000000E+00
27  8-0.00000000E+00-0.00000000E+00-0.00000000E+00 2.19629283E+00-0.00000000E+00
27  9-0.00000000E+00 5.94509528E-02-0.00000000E+00-0.00000000E+00-0.00000000E+00
27 10-0.00000000E+00-0.00000000E+00-0.00000000E+00-1.51264437E+00-0.00000000E+00
28  1-0.00000000E+00-0.00000000E+00-0.00000000E+00-0.00000000E+00 1.00555109E-01
28  2-0.00000000E+00-0.00000000E+00-5.95719547E-02-0.00000000E+00-0.00000000E+00
28  3-0.00000000E+00-0.00000000E+00-0.00000000E+00-0.00000000E+00-1.89081643E-02
28  4-0.00000000E+00-0.00000000E+00 8.57022948E-01-0.00000000E+00-0.00000000E+00
28  5-0.00000000E+00-0.00000000E+00-0.00000000E+00-0.00000000E+00 4.55056375E-02
28  6-0.00000000E+00-0.00000000E+00-0.00000000E+00-0.00000000E+00-1.52367929E-01
28  7-0.00000000E+00-0.00000000E+00-2.48187481E-01-0.00000000E+00-0.00000000E+00
28  8-0.00000000E+00-0.00000000E+00-0.00000000E+00-0.00000000E+00 2.19629319E+00
28  9-0.00000000E+00-0.00000000E+00 5.94508332E-02-0.00000000E+00-0.00000000E+00
28 10-0.00000000E+00-0.00000000E+00-0.00000000E+00-0.00000000E+00-1.51264466E+00
29  1-0.00000000E+00-0.00000000E+00-0.00000000E+00-0.00000000E+00-0.00000000E+00
29  2-0.00000000E+00-0.00000000E+00-0.00000000E+00-0.00000000E+00-0.00000000E+00
29  3-0.00000000E+00-0.00000000E+00 7.68842763E-03-0.00000000E+00-0.00000000E+00
29  4-0.00000000E+00-0.00000000E+00-0.00000000E+00-0.00000000E+00-0.00000000E+00
29  5-0.00000000E+00-0.00000000E+00 4.86208818E-03-0.00000000E+00-0.00000000E+00
29  6-0.00000000E+00-0.00000000E+00-0.00000000E+00-0.00000000E+00-0.00000000E+00
29  7-0.00000000E+00-0.00000000E+00-0.00000000E+00-0.00000000E+00-0.00000000E+00
29  8-0.00000000E+00-0.00000000E+00 2.40462100E+00-0.00000000E+00-0.00000000E+00
29  9-0.00000000E+00-0.00000000E+00-0.00000000E+00-0.00000000E+00-0.00000000E+00
29 10-0.00000000E+00-0.00000000E+00-1.91668063E+00-0.00000000E+00-0.00000000E+00
30  1-1.10510078E-11 1.56894657E-09 9.28718368E-09-0.00000000E+00-0.00000000E+00
30  2 2.20267781E-09-0.00000000E+00-0.00000000E+00-3.72550635E-09 6.65837355E-03
30  3-6.65837373E-03 1.83870260E-10-0.00000000E+00-0.00000000E+00-0.00000000E+00
30  4-1.81932888E-08-0.00000000E+00-0.00000000E+00 8.70967248E-09 4.21069208E-03
30  5-4.21069167E-03-4.09715542E-10-0.00000000E+00-0.00000000E+00-0.00000000E+00
30  6-3.07273385E-09-9.33457528E-09 1.61448271E-08-0.00000000E+00-0.00000000E+00
30  7-3.32527602E-10-0.00000000E+00-0.00000000E+00-7.66845952E-09 2.08246288E+00
30  8-2.08246286E+00-1.77051437E-08-0.00000000E+00-0.00000000E+00-0.00000000E+00
30  9-2.89981829E-09-0.00000000E+00-0.00000000E+00 1.55910202E-09-1.65989413E+00
30 10 1.65989411E+00 1.96213926E-08-0.00000000E+00-0.00000000E+00-0.00000000E+00
31  1 6.38753197E-02-1.43369590E-02-1.27759011E+00 0.00000000E+00 0.00000000E+00
31  2 3.35320649E-02 0.00000000E+00 0.00000000E+00-2.46578492E-01 1.47028291E-03
31  3 1.47028272E-03-2.94056562E-03 0.00000000E+00 0.00000000E+00 0.00000000E+00
31  4 1.11150320E+00 0.00000000E+00 0.00000000E+00 1.44995353E-01 2.31491236E-02
31  5 2.31491232E-02-4.62982468E-02 0.00000000E+00 0.00000000E+00 0.00000000E+00
31  6-4.00524617E-03 1.21604883E-01-4.85499374E-01 0.00000000E+00 0.00000000E+00
31  7-4.13041511E-01 0.00000000E+00 0.00000000E+00 4.29344784E-01-1.34339686E+00
31  8-1.34339688E+00 2.68679374E+00 0.00000000E+00 0.00000000E+00 0.00000000E+00
31  9 1.06146770E-01 0.00000000E+00 0.00000000E+00-1.12406911E-01 9.95031448E-01
31 10 9.95031468E-01-1.99006292E+00 0.00000000E+00 0.00000000E+00 0.00000000E+00
32  1-0.00000000E+00-0.00000000E+00-0.00000000E+00-5.15542845E-01-0.00000000E+00
32  2-0.00000000E+00 1.42309301E+00-0.00000000E+00-0.00000000E+00-0.00000000E+00
32  3-0.00000000E+00-0.00000000E+00-0.00000000E+00-3.73958896E-03-0.00000000E+00
32  4-0.00000000E+00-1.46027548E+00-0.00000000E+00-0.00000000E+00-0.00000000E+00
32  5-0.00000000E+00-0.00000000E+00-0.00000000E+00 2.13711709E-02-0.00000000E+00
32  6-0.00000000E+00-0.00000000E+00-0.00000000E+00-3.32383010E-02-0.00000000E+00
32  7-0.00000000E+00 5.03677130E-01-0.00000000E+00-0.00000000E+00-0.00000000E+00
32  8-0.00000000E+00-0.00000000E+00-0.00000000E+00 1.61379587E+00-0.00000000E+00
32  9-0.00000000E+00-1.25305681E-01-0.00000000E+00-0.00000000E+00-0.00000000E+00
32 10-0.00000000E+00-0.00000000E+00-0.00000000E+00-1.53525831E+00-0.00000000E+00
33  1-0.00000000E+00-0.00000000E+00-0.00000000E+00-0.00000000E+00-5.15543198E-01
33  2-0.00000000E+00-0.00000000E+00 1.42309358E+00-0.00000000E+00-0.00000000E+00
33  3-0.00000000E+00-0.00000000E+00-0.00000000E+00-0.00000000E+00-3.74108122E-03
33  4-0.00000000E+00-0.00000000E+00-1.46027468E+00-0.00000000E+00-0.00000000E+00
33  5-0.00000000E+00-0.00000000E+00-0.00000000E+00-0.00000000E+00 2.13740896E-02
33  6-0.00000000E+00-0.00000000E+00-0.00000000E+00-0.00000000E+00-3.32392342E-02
33  7-0.00000000E+00-0.00000000E+00 5.03677093E-01-0.00000000E+00-0.00000000E+00
33  8-0.00000000E+00-0.00000000E+00-0.00000000E+00-0.00000000E+00 1.61379672E+00
33  9-0.00000000E+00-0.00000000E+00-1.25305720E-01-0.00000000E+00-0.00000000E+00
33 10-0.00000000E+00-0.00000000E+00-0.00000000E+00-0.00000000E+00-1.53525833E+00
34  1-3.32589040E-02-9.76451265E-02-1.05861813E-02 0.00000000E+00 0.00000000E+00
34  2-2.57932789E-01 0.00000000E+00 0.00000000E+00 6.76683978E-02 1.29608319E-02
34  3 1.29608314E-02-2.59216633E-02 0.00000000E+00 0.00000000E+00 0.00000000E+00
34  4-2.81198797E+00 0.00000000E+00 0.00000000E+00-1.05816904E+00-4.35799250E-01
34  5-4.35799134E-01 8.71598384E-01 0.00000000E+00 0.00000000E+00 0.00000000E+00
34  6 1.11679272E+00 2.87548821E+00-5.26090798E-01 0.00000000E+00 0.00000000E+00
34  7-1.76209996E+00 0.00000000E+00 0.00000000E+00 2.13803691E-01-5.19576669E-01
34  8-5.19576719E-01 1.03915339E+00 0.00000000E+00 0.00000000E+00 0.00000000E+00
34  9 9.47761615E-02 0.00000000E+00 0.00000000E+00-2.31048081E-02 2.19342010E-01
34 10 2.19342035E-01-4.38684045E-01 0.00000000E+00 0.00000000E+00 0.00000000E+00
35  1 0.00000000E+00 0.00000000E+00 0.00000000E+00 0.00000000E+00 0.00000000E+00
35  2 0.00000000E+00 0.00000000E+00 0.00000000E+00 0.00000000E+00 0.00000000E+00
35  3 0.00000000E+00 0.00000000E+00-2.38500471E-02 0.00000000E+00 0.00000000E+00
35  4 0.00000000E+00 0.00000000E+00 0.00000000E+00 0.00000000E+00 0.00000000E+00
35  5 0.00000000E+00 0.00000000E+00 1.03554961E+00 0.00000000E+00 0.00000000E+00
35  6 0.00000000E+00 0.00000000E+00 0.00000000E+00 0.00000000E+00 0.00000000E+00
35  7 0.00000000E+00 0.00000000E+00 0.00000000E+00 0.00000000E+00 0.00000000E+00
35  8 0.00000000E+00 0.00000000E+00-3.94796861E-01 0.00000000E+00 0.00000000E+00
35  9 0.00000000E+00 0.00000000E+00 0.00000000E+00 0.00000000E+00 0.00000000E+00
35 10 0.00000000E+00 0.00000000E+00 1.93671828E-01 0.00000000E+00 0.00000000E+00
36  1 4.51505759E-09 1.27501867E-08-1.88569771E-09-0.00000000E+00-0.00000000E+00
36  2-3.41160357E-08-0.00000000E+00-0.00000000E+00 7.19651130E-08 2.06547460E-02
36  3-2.06547473E-02 1.34773838E-09-0.00000000E+00-0.00000000E+00-0.00000000E+00
36  4 1.05781919E-07-0.00000000E+00-0.00000000E+00-4.39923935E-08-8.96812225E-01
36  5 8.96812307E-01-8.17732453E-08-0.00000000E+00-0.00000000E+00-0.00000000E+00
36  6-6.59954077E-09-4.63305092E-08-2.23957699E-08-0.00000000E+00-0.00000000E+00
36  7 7.73012144E-08-0.00000000E+00-0.00000000E+00 1.22899553E-08 3.41904128E-01
36  8-3.41904094E-01-3.43970294E-08-0.00000000E+00-0.00000000E+00-0.00000000E+00
36  9 1.66981838E-09-0.00000000E+00-0.00000000E+00-1.91788923E-09-1.67724716E-01
36 10 1.67724731E-01-1.43389911E-08-0.00000000E+00-0.00000000E+00-0.00000000E+00
37  1 0.00000000E+00 0.00000000E+00 0.00000000E+00 0.00000000E+00-8.16703499E-03
37  2 0.00000000E+00 0.00000000E+00 1.08794527E-01 0.00000000E+00 0.00000000E+00
37  3 0.00000000E+00 0.00000000E+00 0.00000000E+00 0.00000000E+00-1.89819193E-02