 $CONTRL RUNTYP=NAEWDY2 SCFTYP=RHF CITYP=GUGA $END
 $BASIS GBASIS=STO NGAUSS=3 $END
 $GUESS  GUESS=HUCKEL NORB=6 $END
 $CIDRT IEXCIT=2 NFZC=0 NDOC=2 NVAL=4 $END
 $GUGDIA NSTATE=2 ITERMX=200 MAXDIA=1000 $END
 $DATA
 HCP
 C1
 H           1.0  -1.078134   0.000000  -0.000000
 Li          3.0   0.000000   0.200000   0.000000
 $END
