 $CONTRL RUNTYP=NAEWDY2 SCFTYP=RHF CITYP=GUGA $END
 $BASIS GBASIS=STO NGAUSS=3 $END
 $GUESS  GUESS=HUCKEL NORB=2 $END
 $CIDRT IEXCIT=2 NFZC=0 NDOC=1 NVAL=1 $END
 $GUGDIA NSTATE=2 ITERMX=200 MAXDIA=1000 $END
 $DATA
 HCP
 C1
 H           1.0   0.000000   0.000000   0.000000
 H           1.0   0.000000   0.000000   1.400000
 $END
